NumberOfAtoms 148
NumberOfSpecies 2
LatticeConstant 1.0 Ang
%block LatticeVectors
     8.970000000      0.000000000      0.000000000 
     0.000000000     50.000000000      0.000000000 
     0.000000000      0.000000000     20.000000000 
%endblock LatticeVectors
AtomicCoordinatesFormat  Ang
%block AtomicCoordinatesAndAtomicSpecies
    11.549780401      6.210316715     10.000000000 1 # 1
    10.749866729      8.224738912     10.000000000 2 # 2
    13.886404029      5.626575252     10.000000000 1 # 3
    11.778261576      7.289053867     10.000000000 2 # 4
    13.132763445      7.656913055     10.000000000 2 # 5
    11.085934124      9.616203630     10.000000000 2 # 6
    12.449241406     10.013890588     10.000000000 2 # 7
    11.772020255     12.372603855     10.000000000 2 # 8
    16.258589358      5.028901026     10.000000000 1 # 9
    14.153752335      6.698223254     10.000000000 2 # 10
    15.498788972      7.064290193     10.000000000 2 # 11
    13.477454340      9.042725098     10.000000000 2 # 12
    14.838271217      9.429363920     10.000000000 2 # 13
    12.794146719     11.393156284     10.000000000 2 # 14
    14.159589722     11.784139155     10.000000000 2 # 15
    12.115552800     13.750582882     10.000000000 2 # 16
    13.480584145     14.142379065     10.000000000 2 # 17
    12.800807284     16.500906442     10.000000000 2 # 18
    16.533876534      6.097188589     10.000000000 2 # 19
    17.847960303      6.473158534     10.000000000 2 # 20
    15.857763369      8.445548445     10.000000000 2 # 21
    17.224545741      8.825611971     10.000000000 2 # 22
    15.182893466     10.806391428     10.000000000 2 # 23
    16.550048546     11.191453206     10.000000000 2 # 24
    14.503222707     13.162380064     10.000000000 2 # 25
    15.868670614     13.551798712     10.000000000 2 # 26
    13.823648797     15.520239474     10.000000000 2 # 27
    15.188271829     15.911261060     10.000000000 2 # 28
    13.143622141     17.878566414     10.000000000 2 # 29
    14.508217457     18.270664704     10.000000000 2 # 30
    13.828929250     20.631978626     10.000000000 2 # 31
    18.621055393      5.688460171     10.000000000 1 # 32
    18.235342865      7.833666160     10.000000000 2 # 33
    17.569104629     10.209334124     10.000000000 2 # 34
    18.935144030     10.598404753     10.000000000 2 # 35
    16.892072985     12.570785363     10.000000000 2 # 36
    18.255975863     12.961068700     10.000000000 2 # 37
    16.211221678     14.929750970     10.000000000 2 # 38
    17.576086213     15.320778169     10.000000000 2 # 39
    15.530861854     17.289236283     10.000000000 2 # 40
    16.895692311     17.680225023     10.000000000 2 # 41
    14.850897376     19.649161638     10.000000000 2 # 42
    16.214878960     20.039283383     10.000000000 2 # 43
    14.171861720     22.011663789     10.000000000 2 # 44
    15.537867785     22.400860136     10.000000000 2 # 45
    14.871987078     24.776398852     10.000000000 2 # 46
    19.277871929     11.978142850     10.000000000 2 # 47
    18.598765645     14.339411710     10.000000000 2 # 48
    19.963376930     14.731399425     10.000000000 2 # 49
    17.918617156     16.698886276     10.000000000 2 # 50
    19.283261806     17.089920406     10.000000000 2 # 51
    17.238271960     19.058149511     10.000000000 2 # 52
    18.603635135     19.447727335     10.000000000 2 # 53
    16.556829456     21.418734615     10.000000000 2 # 54
    17.924018177     21.803920356     10.000000000 2 # 55
    15.882795595     23.784591116     10.000000000 2 # 56
    17.249539492     24.164631534     10.000000000 2 # 57
    15.259469655     26.136919593     10.000000000 2 # 58
    16.573528383     26.513086600     10.000000000 2 # 59
    20.306108853     16.109097633     10.000000000 2 # 60
    19.626214553     18.467734483     10.000000000 2 # 61
    20.991291214     18.859283971     10.000000000 2 # 62
    18.947290726     20.826014829     10.000000000 2 # 63
    20.312825085     21.216752485     10.000000000 2 # 64
    18.268943160     23.180870618     10.000000000 2 # 65
    19.629807891     23.567412833     10.000000000 2 # 66
    17.608579735     25.545962169     10.000000000 2 # 67
    18.953720875     25.911830154     10.000000000 2 # 68
    21.334834227     20.237210067     10.000000000 2 # 69
    20.657854360     22.596011825     10.000000000 2 # 70
    22.021175295     22.993716375     10.000000000 2 # 71
    19.974720054     24.953099520     10.000000000 2 # 72
    21.329200977     25.321064361     10.000000000 2 # 73
    22.357428816     24.385222352     10.000000000 2 # 74
    15.527377221     28.918410347     10.000000000 2 # 75
    16.555772068     27.982725303     10.000000000 2 # 76
    17.910273938     28.350584491     10.000000000 2 # 77
    15.863444617     30.309875065     10.000000000 2 # 78
    17.226751898     30.707562025     10.000000000 2 # 79
    16.549530747     33.066275290     10.000000000 2 # 80
    18.931262827     27.391894690     10.000000000 2 # 81
    20.276299464     27.757961629     10.000000000 2 # 82
    18.254964832     29.736396534     10.000000000 2 # 83
    19.615781710     30.123035356     10.000000000 2 # 84
    17.571657212     32.086827719     10.000000000 2 # 85
    18.937100214     32.477810590     10.000000000 2 # 86
    16.893063292     34.444254318     10.000000000 2 # 87
    18.258094637     34.836050501     10.000000000 2 # 88
    17.578317776     37.194577878     10.000000000 2 # 89
    21.311387026     26.790860025     10.000000000 2 # 90
    22.625470795     27.166829970     10.000000000 2 # 91
    20.635273861     29.139219881     10.000000000 2 # 92
    22.002056234     29.519283408     10.000000000 2 # 93
    19.960403959     31.500062864     10.000000000 2 # 94
    21.327559038     31.885124642     10.000000000 2 # 95
    19.280733199     33.856051500     10.000000000 2 # 96
    20.646181106     34.245470148     10.000000000 2 # 97
    18.601159289     36.213910909     10.000000000 2 # 98
    19.965782321     36.604932496     10.000000000 2 # 99
    17.921132634     38.572237850     10.000000000 2 # 100
    19.285727949     38.964336140     10.000000000 2 # 101
    18.606439742     41.325650062     10.000000000 2 # 102
    23.012853357     28.527337596     10.000000000 2 # 103
    22.346615121     30.903005560     10.000000000 2 # 104
    23.712654522     31.292076190     10.000000000 2 # 105
    21.669583477     33.264456799     10.000000000 2 # 106
    23.033486356     33.654740136     10.000000000 2 # 107
    20.988732170     35.623422406     10.000000000 2 # 108
    22.353596705     36.014449605     10.000000000 2 # 109
    20.308372346     37.982907719     10.000000000 2 # 110
    21.673202803     38.373896459     10.000000000 2 # 111
    19.628407868     40.342833075     10.000000000 2 # 112
    20.992389452     40.732954820     10.000000000 2 # 113
    18.949372213     42.705335225     10.000000000 2 # 114
    20.315378277     43.094531572     10.000000000 2 # 115
    19.649497570     45.470070288     10.000000000 2 # 116
    19.263636686     47.614989625     10.000000000 1 # 117
    24.055382421     32.671814286     10.000000000 2 # 118
    23.376276136     35.033083145     10.000000000 2 # 119
    24.740887422     35.425070861     10.000000000 2 # 120
    22.696127649     37.392557712     10.000000000 2 # 121
    24.060772298     37.783591842     10.000000000 2 # 122
    22.015782453     39.751820948     10.000000000 2 # 123
    23.381145627     40.141398771     10.000000000 2 # 124
    21.334339948     42.112406050     10.000000000 2 # 125
    22.701528669     42.497591791     10.000000000 2 # 126
    20.660306088     44.478262552     10.000000000 2 # 127
    22.027049985     44.858302970     10.000000000 2 # 128
    20.036980147     46.830591029     10.000000000 2 # 129
    21.351038875     47.206758036     10.000000000 2 # 130
    25.083619345     36.802769068     10.000000000 2 # 131
    24.403725045     39.161405920     10.000000000 2 # 132
    25.768801706     39.552955406     10.000000000 2 # 133
    23.724801218     41.519686266     10.000000000 2 # 134
    25.090335577     41.910423921     10.000000000 2 # 135
    23.046453652     43.874542054     10.000000000 2 # 136
    24.407318384     44.261084269     10.000000000 2 # 137
    22.386090227     46.239633605     10.000000000 2 # 138
    23.731231367     46.605501590     10.000000000 2 # 139
    21.626180414     48.275132279     10.000000000 1 # 140
    26.112344719     40.930881503     10.000000000 2 # 141
    25.435364852     43.289683261     10.000000000 2 # 142
    26.798685787     43.687387810     10.000000000 2 # 143
    24.752230547     45.646770956     10.000000000 2 # 144
    26.106711469     46.014735797     10.000000000 2 # 145
    23.998759089     47.677119842     10.000000000 1 # 146
    27.134939307     45.078893788     10.000000000 2 # 147
    26.334756085     47.093619712     10.000000000 1 # 148
%endblock AtomicCoordinatesAndAtomicSpecies
