NumberOfAtoms 36
NumberOfSpecies 2
LatticeConstant 1.0 Ang
%block LatticeVectors
     8.870000000      0.000000000      0.000000000 
     0.000000000     50.000000000      0.000000000 
     0.000000000      0.000000000     20.000000000 
%endblock LatticeVectors
AtomicCoordinatesFormat  Ang
%block AtomicCoordinatesAndAtomicSpecies
    11.996986530      5.557989101     10.000000000 1 # 1
    11.201741779      7.573564824     10.000000000 2 # 2
    14.335872486      4.971688025     10.000000000 1 # 3
    12.227668029      6.636278195     10.000000000 2 # 4
    13.581401650      7.002626849     10.000000000 2 # 5
    11.540864259      8.968383709     10.000000000 2 # 6
    12.903954178      9.363834617     10.000000000 2 # 7
    12.246520176     11.739070324     10.000000000 2 # 8
    11.862140461     13.887920476     10.000000000 1 # 9
    16.710709777      4.371723557     10.000000000 1 # 10
    14.604006626      6.043224045     10.000000000 2 # 11
    15.946945177      6.407223362     10.000000000 2 # 12
    13.927305537      8.390861513     10.000000000 2 # 13
    15.292409653      8.770123940     10.000000000 2 # 14
    13.252381385     10.751250547     10.000000000 2 # 15
    14.624397112     11.128998513     10.000000000 2 # 16
    12.635670712     13.103625402     10.000000000 2 # 17
    13.947625374     13.479754028     10.000000000 2 # 18
    16.984977486      5.440307531     10.000000000 2 # 19
    18.296952685      5.816438981     10.000000000 2 # 20
    16.308440833      7.790983419     10.000000000 2 # 21
    17.680428030      8.168827548     10.000000000 2 # 22
    15.640208162     10.149766948     10.000000000 2 # 23
    17.005195509     10.529224436     10.000000000 2 # 24
    14.985716163     12.512873612     10.000000000 2 # 25
    16.328698820     12.876826769     10.000000000 2 # 26
    14.222090372     14.548250603     10.000000000 1 # 27
    19.070337968      5.032051067     10.000000000 1 # 28
    18.686194240      7.180921170     10.000000000 2 # 29
    18.028605933      9.556332122     10.000000000 2 # 30
    19.391848510      9.951522703     10.000000000 2 # 31
    17.351219969     11.917354158     10.000000000 2 # 32
    18.704911713     12.283636991     10.000000000 2 # 33
    16.597103901     13.948290573     10.000000000 1 # 34
    19.730920862     11.346359724     10.000000000 2 # 35
    18.934923309     13.362064971     10.000000000 1 # 36
%endblock AtomicCoordinatesAndAtomicSpecies
