NumberOfAtoms 78
NumberOfSpecies 2
LatticeConstant 1.0 Ang
%block LatticeVectors
     8.970000000      0.000000000      0.000000000 
     0.000000000     50.000000000      0.000000000 
     0.000000000      0.000000000     20.000000000 
%endblock LatticeVectors
AtomicCoordinatesFormat  Ang
%block AtomicCoordinatesAndAtomicSpecies
    11.702354886      6.070550900     10.000000000 1 # 1
    10.906043255      8.093024884     10.000000000 2 # 2
    14.071052192      5.539511118     10.000000000 1 # 3
    11.933695500      7.149288563     10.000000000 2 # 4
    13.280470023      7.554165663     10.000000000 2 # 5
    11.213148526      9.478138660     10.000000000 2 # 6
    12.550858220      9.904761753     10.000000000 2 # 7
    11.861071844     12.290876019     10.000000000 2 # 8
    16.433342379      4.979422416     10.000000000 1 # 9
    14.320059052      6.616091207     10.000000000 2 # 10
    15.660482024      7.006219612     10.000000000 2 # 11
    13.598332067      8.950640479     10.000000000 2 # 12
    14.952534403      9.366720846     10.000000000 2 # 13
    12.877693501     11.302432935     10.000000000 2 # 14
    14.232909642     11.719759640     10.000000000 2 # 15
    12.176869930     13.659591066     10.000000000 2 # 16
    13.520283937     14.076059874     10.000000000 2 # 17
    12.822569129     16.457285473     10.000000000 2 # 18
    16.702916363      6.049626329     10.000000000 2 # 19
    18.011614856      6.447730662     10.000000000 2 # 20
    15.990784907      8.397850434     10.000000000 2 # 21
    17.349553602      8.799644030     10.000000000 2 # 22
    15.272543771     10.752528039     10.000000000 2 # 23
    16.630473652     11.166542531     10.000000000 2 # 24
    14.555570383     13.109862665     10.000000000 2 # 25
    15.912834059     13.529002201     10.000000000 2 # 26
    13.842720318     15.469592050     10.000000000 2 # 27
    15.195886069     15.885941265     10.000000000 2 # 28
    13.138039391     17.825078633     10.000000000 2 # 29
    14.481743989     18.241527319     10.000000000 2 # 30
    13.782548840     20.623159825     10.000000000 2 # 31
    18.824994019      5.700311995     10.000000000 1 # 32
    18.355291851      7.802327970     10.000000000 2 # 33
    17.666876444     10.200174378     10.000000000 2 # 34
    19.008132026     10.616668715     10.000000000 2 # 35
    16.950696431     12.557338502     10.000000000 2 # 36
    18.303472312     12.974279777     10.000000000 2 # 37
    16.232253683     14.913090488     10.000000000 2 # 38
    17.588586969     15.333857468     10.000000000 2 # 39
    15.517529367     17.275716581     10.000000000 2 # 40
    16.873855823     17.696519888     10.000000000 2 # 41
    14.802664887     19.635429096     10.000000000 2 # 42
    16.155417365     20.052422290     10.000000000 2 # 43
    14.098018541     21.993062824     10.000000000 2 # 44
    15.439292460     22.409659486     10.000000000 2 # 45
    14.750837237     24.807480784     10.000000000 2 # 46
    14.281109381     26.909426758     10.000000000 1 # 47
    19.323608976     11.986580090     10.000000000 2 # 48
    18.624363243     14.368090257     10.000000000 2 # 49
    19.968046465     14.784559239     10.000000000 2 # 50
    17.910210907     16.723634554     10.000000000 2 # 51
    19.263366215     17.140051277     10.000000000 2 # 52
    17.193224877     19.080637375     10.000000000 2 # 53
    18.550410659     19.499860608     10.000000000 2 # 54
    16.475687026     21.443220596     10.000000000 2 # 55
    17.833561300     21.857303034     10.000000000 2 # 56
    15.756590229     23.810162395     10.000000000 2 # 57
    17.115360703     24.211964205     10.000000000 2 # 58
    15.094516327     26.162094675     10.000000000 2 # 59
    16.403212210     26.560178446     10.000000000 2 # 60
    20.283547428     16.152320770     10.000000000 2 # 61
    19.585722987     18.533646062     10.000000000 2 # 62
    20.929206605     18.950048471     10.000000000 2 # 63
    18.873115518     20.889977977     10.000000000 2 # 64
    20.228394831     21.307209058     10.000000000 2 # 65
    18.153580002     23.243159742     10.000000000 2 # 66
    19.507847229     23.659168740     10.000000000 2 # 67
    17.445633590     25.603596238     10.000000000 2 # 68
    18.786085596     25.993701110     10.000000000 2 # 69
    16.672742349     27.630365271     10.000000000 1 # 70
    21.245012616     20.318740749     10.000000000 2 # 71
    20.555224096     22.704956258     10.000000000 2 # 72
    21.892939128     23.131582968     10.000000000 2 # 73
    19.825685141     25.055670564     10.000000000 2 # 74
    21.172488775     25.460520599     10.000000000 2 # 75
    19.035138140     27.070270326     10.000000000 1 # 76
    22.200048909     24.516725879     10.000000000 2 # 77
    21.403879978     26.539259981     10.000000000 1 # 78
%endblock AtomicCoordinatesAndAtomicSpecies
