NumberOfAtoms 30
NumberOfSpecies 2
LatticeConstant 1.0 Ang
%block LatticeVectors
     8.970000000      0.000000000      0.000000000 
     0.000000000     50.000000000      0.000000000 
     0.000000000      0.000000000     20.000000000 
%endblock LatticeVectors
AtomicCoordinatesFormat  Ang
%block AtomicCoordinatesAndAtomicSpecies
    11.995819351      5.570807491     10.000000000 1 # 1
    11.214687566      7.582837368     10.000000000 2 # 2
    14.342854351      4.980025997     10.000000000 1 # 3
    12.229558220      6.648659582     10.000000000 2 # 4
    13.594878296      7.006414886     10.000000000 2 # 5
    11.552705871      8.981981620     10.000000000 2 # 6
    12.920488593      9.367834079     10.000000000 2 # 7
    12.248719509     11.712534580     10.000000000 2 # 8
    10.159693543     12.113715278     10.000000000 1 # 9
    16.721049964      4.384622609     10.000000000 1 # 10
    14.608618724      6.052212951     10.000000000 2 # 11
    15.959513062      6.417867972     10.000000000 2 # 12
    13.941895085      8.392044572     10.000000000 2 # 13
    15.298675691      8.774760308     10.000000000 2 # 14
    13.280893586     10.748773544     10.000000000 2 # 15
    14.631821118     11.114595217     10.000000000 2 # 16
    16.991757842      5.454108559     10.000000000 2 # 17
    18.305993139      5.835885479     10.000000000 2 # 18
    16.320060569      7.798813013     10.000000000 2 # 19
    17.687946664      8.184453746     10.000000000 2 # 20
    15.645664638     10.160458044     10.000000000 2 # 21
    17.011137034     10.517845826     10.000000000 2 # 22
    12.520423064     12.781712973     10.000000000 1 # 23
    19.080910487      5.053115877     10.000000000 1 # 24
    18.690977795      7.195728123     10.000000000 2 # 25
    18.025932953      9.583609381     10.000000000 2 # 26
    19.419602731      9.970748965     10.000000000 2 # 27
    14.897404816     12.186901622     10.000000000 1 # 28
    19.804447450     11.330761910     10.000000000 2 # 29
    17.245515753     11.595550614     10.000000000 1 # 30
%endblock AtomicCoordinatesAndAtomicSpecies
