NumberOfAtoms 44
NumberOfSpecies 2
LatticeConstant 1.0 Ang
%block LatticeVectors
     8.870000000      0.000000000      0.000000000 
     0.000000000     50.000000000      0.000000000 
     0.000000000      0.000000000     20.000000000 
%endblock LatticeVectors
AtomicCoordinatesFormat  Ang
%block AtomicCoordinatesAndAtomicSpecies
    11.615829695      6.148850033     10.000000000 1 # 1
    10.817739518      8.162283924     10.000000000 2 # 2
    13.952011318      5.565432653     10.000000000 1 # 3
    11.844105575      7.227704072     10.000000000 2 # 4
    13.199892143      7.595336513     10.000000000 2 # 5
    11.154495371      9.555406735     10.000000000 2 # 6
    12.518291980      9.953301869     10.000000000 2 # 7
    11.844145011     12.314399708     10.000000000 2 # 8
    16.323795276      4.967671562     10.000000000 1 # 9
    14.219253866      6.637184231     10.000000000 2 # 10
    15.564955206      7.002858058     10.000000000 2 # 11
    13.545191371      8.981924508     10.000000000 2 # 12
    14.906487684      9.368022937     10.000000000 2 # 13
    12.864142790     11.333533010     10.000000000 2 # 14
    14.229780478     11.722666455     10.000000000 2 # 15
    12.188336524     13.695401643     10.000000000 2 # 16
    13.556309429     14.083694195     10.000000000 2 # 17
    12.892718572     16.459864227     10.000000000 2 # 18
    10.806645041     16.850885467     10.000000000 1 # 19
    16.599240888      6.035822463     10.000000000 2 # 20
    17.913593530      6.411458038     10.000000000 2 # 21
    15.924809668      8.384165714     10.000000000 2 # 22
    17.292601834      8.762874765     10.000000000 2 # 23
    15.251884311     10.745774068     10.000000000 2 # 24
    16.621407060     11.127651864     10.000000000 2 # 25
    14.573119323     13.103800204     10.000000000 2 # 26
    15.942609986     13.485736730     10.000000000 2 # 27
    13.901665250     15.468555680     10.000000000 2 # 28
    15.269483223     15.847337298     10.000000000 2 # 29
    18.686433509      5.626540964     10.000000000 1 # 30
    18.301576913      7.771757765     10.000000000 2 # 31
    17.638175274     10.147678618     10.000000000 2 # 32
    19.006143497     10.536125628     10.000000000 2 # 33
    16.964674958     12.508870434     10.000000000 2 # 34
    18.330307414     12.898015631     10.000000000 2 # 35
    16.287943412     14.863457499     10.000000000 2 # 36
    17.649247211     15.249487295     10.000000000 2 # 37
    13.168873235     17.509813267     10.000000000 1 # 38
    19.350301757     11.917107944     10.000000000 2 # 39
    18.676166316     14.278257733     10.000000000 2 # 40
    20.039951829     14.676352435     10.000000000 2 # 41
    15.540854210     16.911818523     10.000000000 1 # 42
    20.376510368     16.069481359     10.000000000 2 # 43
    17.877462514     16.328490404     10.000000000 1 # 44
%endblock AtomicCoordinatesAndAtomicSpecies
