NumberOfAtoms 50
NumberOfSpecies 2
LatticeConstant 1.0 Ang
%block LatticeVectors
     8.870000000      0.000000000      0.000000000 
     0.000000000     50.000000000      0.000000000 
     0.000000000      0.000000000     20.000000000 
%endblock LatticeVectors
AtomicCoordinatesFormat  Ang
%block AtomicCoordinatesAndAtomicSpecies
    11.644703111      6.076834564     10.000000000 1 # 1
    10.886871215      8.101348506     10.000000000 2 # 2
    14.007687311      5.523473696     10.000000000 1 # 3
    11.884781158      7.153413568     10.000000000 2 # 4
    13.241458230      7.545906504     10.000000000 2 # 5
    11.204892437      9.460919396     10.000000000 2 # 6
    12.528799332      9.903972816     10.000000000 2 # 7
    11.889964491     12.300585481     10.000000000 2 # 8
    16.362710093      4.939295571     10.000000000 1 # 9
    14.266301233      6.597221774     10.000000000 2 # 10
    15.610818853      6.974650725     10.000000000 2 # 11
    13.571364942      8.939101736     10.000000000 2 # 12
    14.928264230      9.343301044     10.000000000 2 # 13
    12.872244895     11.307909317     10.000000000 2 # 14
    14.235888253     11.709318640     10.000000000 2 # 15
    12.213327966     13.641353360     10.000000000 2 # 16
    13.540123942     14.077156493     10.000000000 2 # 17
    12.898149908     16.481134468     10.000000000 2 # 18
    12.434857251     18.594264802     10.000000000 1 # 19
    16.639506295      6.007005810     10.000000000 2 # 20
    17.959713332      6.396233582     10.000000000 2 # 21
    15.952014261      8.365138203     10.000000000 2 # 22
    17.319645220      8.749109680     10.000000000 2 # 23
    15.263101880     10.732727429     10.000000000 2 # 24
    16.622563068     11.133696476     10.000000000 2 # 25
    14.570882583     13.098526358     10.000000000 2 # 26
    15.930441385     13.499377634     10.000000000 2 # 27
    13.874429127     15.483245268     10.000000000 2 # 28
    15.242199392     15.866959910     10.000000000 2 # 29
    13.234860485     17.836188776     10.000000000 2 # 30
    14.555089950     18.225260253     10.000000000 2 # 31
    18.759966318      5.638387283     10.000000000 1 # 32
    18.296099101      7.751359951     10.000000000 2 # 33
    17.653490778     10.155193311     10.000000000 2 # 34
    18.980217847     10.590972398     10.000000000 2 # 35
    16.957639172     12.522836424     10.000000000 2 # 36
    18.321231462     12.924261204     10.000000000 2 # 37
    16.265699223     14.888702342     10.000000000 2 # 38
    17.622686033     15.292893849     10.000000000 2 # 39
    15.583586638     17.257392043     10.000000000 2 # 40
    16.928134786     17.634718801     10.000000000 2 # 41
    14.831776829     19.293044942     10.000000000 1 # 42
    19.303545560     11.931653449     10.000000000 2 # 43
    18.665052254     14.328004358     10.000000000 2 # 44
    19.989033575     14.770857630     10.000000000 2 # 45
    17.952928095     16.686033994     10.000000000 2 # 46
    19.309574695     17.078456251     10.000000000 2 # 47
    17.186948990     18.708449793     10.000000000 1 # 48
    20.307328104     16.130369286     10.000000000 2 # 49
    19.549716649     18.155026439     10.000000000 1 # 50
%endblock AtomicCoordinatesAndAtomicSpecies
