NumberOfAtoms 50
NumberOfSpecies 2
LatticeConstant 1.0 Ang
%block LatticeVectors
     8.970000000      0.000000000      0.000000000 
     0.000000000     50.000000000      0.000000000 
     0.000000000      0.000000000     20.000000000 
%endblock LatticeVectors
AtomicCoordinatesFormat  Ang
%block AtomicCoordinatesAndAtomicSpecies
    11.612447454      6.144018069     10.000000000 1 # 1
    10.771165972      8.157615167     10.000000000 2 # 2
    13.951456756      5.565337921     10.000000000 1 # 3
    11.812623530      7.244833286     10.000000000 2 # 4
    13.182120077      7.593727823     10.000000000 2 # 5
    11.110585203      9.549575385     10.000000000 2 # 6
    12.484178422      9.954319583     10.000000000 2 # 7
    11.792929761     12.317960510     10.000000000 2 # 8
    16.324227120      4.967195889     10.000000000 1 # 9
    14.220015987      6.637181763     10.000000000 2 # 10
    15.560901572      7.002789072     10.000000000 2 # 11
    13.534603486      8.987840611     10.000000000 2 # 12
    14.905789982      9.368961717     10.000000000 2 # 13
    12.831891007     11.341888856     10.000000000 2 # 14
    14.218532302     11.722392287     10.000000000 2 # 15
    12.143983333     13.689831558     10.000000000 2 # 16
    13.521573011     14.082588266     10.000000000 2 # 17
    12.850964984     16.459271992     10.000000000 2 # 18
    12.504656143     18.606815001     10.000000000 1 # 19
    16.613606339      6.043824582     10.000000000 2 # 20
    17.926794280      6.424304672     10.000000000 2 # 21
    15.936697427      8.381414515     10.000000000 2 # 22
    17.323439680      8.758541654     10.000000000 2 # 23
    15.251158408     10.744934764     10.000000000 2 # 24
    16.632897762     11.120984983     10.000000000 2 # 25
    14.561463552     13.110549727     10.000000000 2 # 26
    15.943243928     13.486639994     10.000000000 2 # 27
    13.870982216     15.472722119     10.000000000 2 # 28
    15.257577176     15.850254666     10.000000000 2 # 29
    13.267380132     17.807160410     10.000000000 2 # 30
    14.580572334     18.187751867     10.000000000 2 # 31
    18.689640094      5.624718996     10.000000000 1 # 32
    18.343324035      7.772311373     10.000000000 2 # 33
    17.672508923     10.148990221     10.000000000 2 # 34
    19.050579963     10.541888332     10.000000000 2 # 35
    16.975897410     12.509085757     10.000000000 2 # 36
    18.362525800     12.889745869     10.000000000 2 # 37
    16.288744012     14.862552048     10.000000000 2 # 38
    17.660042456     15.243580690     10.000000000 2 # 39
    15.633368660     17.228732481     10.000000000 2 # 40
    16.974129671     17.594341095     10.000000000 2 # 41
    14.869561794     19.264478123     10.000000000 1 # 42
    19.401390379     11.913562328     10.000000000 2 # 43
    18.710491988     14.276879311     10.000000000 2 # 44
    20.083923153     14.682215749     10.000000000 2 # 45
    18.011980394     16.637748723     10.000000000 2 # 46
    19.381639860     16.986910849     10.000000000 2 # 47
    17.242407316     18.666216275     10.000000000 1 # 48
    20.422910457     16.073986177     10.000000000 2 # 49
    19.581950058     18.087608780     10.000000000 1 # 50
%endblock AtomicCoordinatesAndAtomicSpecies
