NumberOfAtoms 58
NumberOfSpecies 2
LatticeConstant 1.0 Ang
%block LatticeVectors
     8.870000000      0.000000000      0.000000000 
     0.000000000     50.000000000      0.000000000 
     0.000000000      0.000000000     20.000000000 
%endblock LatticeVectors
AtomicCoordinatesFormat  Ang
%block AtomicCoordinatesAndAtomicSpecies
    11.574017370      6.170416717     10.000000000 1 # 1
    10.775536581      8.184822962     10.000000000 2 # 2
    13.911781735      5.586546456     10.000000000 1 # 3
    11.802964234      7.249139314     10.000000000 2 # 4
    13.157934767      7.616725231     10.000000000 2 # 5
    11.111969685      9.576774053     10.000000000 2 # 6
    12.475246847      9.974231897     10.000000000 2 # 7
    11.798992707     12.332969233     10.000000000 2 # 8
    16.283497687      4.989142717     10.000000000 1 # 9
    14.178789565      6.658357232     10.000000000 2 # 10
    15.523808937      7.024542776     10.000000000 2 # 11
    13.503034538      9.002723696     10.000000000 2 # 12
    14.863958655      9.389381445     10.000000000 2 # 13
    12.820464981     11.353819748     10.000000000 2 # 14
    14.186361243     11.744518345     10.000000000 2 # 15
    12.142705380     13.711882665     10.000000000 2 # 16
    13.508273140     14.103622995     10.000000000 2 # 17
    12.830065245     16.465146104     10.000000000 2 # 18
    16.558849763      6.057411774     10.000000000 2 # 19
    17.872823531      6.433378723     10.000000000 2 # 20
    15.883155482      8.405890595     10.000000000 2 # 21
    17.250413324      8.785494417     10.000000000 2 # 22
    15.208776257     10.767048853     10.000000000 2 # 23
    16.576654465     11.151606130     10.000000000 2 # 24
    14.530092828     13.123759563     10.000000000 2 # 25
    15.895801007     13.512644789     10.000000000 2 # 26
    13.851630874     15.482607617     10.000000000 2 # 27
    15.215718255     15.872048626     10.000000000 2 # 28
    13.173365618     17.845101934     10.000000000 2 # 29
    14.539826503     18.233720882     10.000000000 2 # 30
    13.874410551     20.609527257     10.000000000 2 # 31
    11.787213090     21.000362218     10.000000000 1 # 32
    18.646196713      5.649023557     10.000000000 1 # 33
    18.260410278      7.794054753     10.000000000 2 # 34
    17.595078354     10.169834521     10.000000000 2 # 35
    18.961507086     10.558570063     10.000000000 2 # 36
    16.918876202     12.531492506     10.000000000 2 # 37
    18.282937824     12.920931053     10.000000000 2 # 38
    16.238843872     14.890996449     10.000000000 2 # 39
    17.604650432     15.279685495     10.000000000 2 # 40
    15.558102538     17.251958164     10.000000000 2 # 41
    16.925938806     17.636514138     10.000000000 2 # 42
    14.884551668     19.618075484     10.000000000 2 # 43
    16.251768726     19.997946656     10.000000000 2 # 44
    19.304680623     11.938553465     10.000000000 2 # 45
    18.626408189     14.299847182     10.000000000 2 # 46
    19.991898569     14.691941851     10.000000000 2 # 47
    17.948403198     16.658949900     10.000000000 2 # 48
    19.314319603     17.049722373     10.000000000 2 # 49
    17.270777692     19.014111274     10.000000000 2 # 50
    18.631683672     19.400574111     10.000000000 2 # 51
    14.149365629     21.660615506     10.000000000 1 # 52
    20.335810490     16.070722680     10.000000000 2 # 53
    19.659566843     18.429349562     10.000000000 2 # 54
    21.022900723     18.826958422     10.000000000 2 # 55
    16.522360758     21.062701047     10.000000000 1 # 56
    21.359194405     20.218912183     10.000000000 2 # 57
    18.858741129     20.478850111     10.000000000 1 # 58
%endblock AtomicCoordinatesAndAtomicSpecies
