NumberOfAtoms 72
NumberOfSpecies 2
LatticeConstant 1.0 Ang
%block LatticeVectors
     8.870000000      0.000000000      0.000000000 
     0.000000000     50.000000000      0.000000000 
     0.000000000      0.000000000     20.000000000 
%endblock LatticeVectors
AtomicCoordinatesFormat  Ang
%block AtomicCoordinatesAndAtomicSpecies
    11.549780401      6.210316715     10.000000000 1 # 1
    10.749866729      8.224738912     10.000000000 2 # 2
    13.886404029      5.626575252     10.000000000 1 # 3
    11.778261576      7.289053867     10.000000000 2 # 4
    13.132763445      7.656913055     10.000000000 2 # 5
    11.085934124      9.616203630     10.000000000 2 # 6
    12.449241406     10.013890588     10.000000000 2 # 7
    11.772020255     12.372603855     10.000000000 2 # 8
    16.258589358      5.028901026     10.000000000 1 # 9
    14.153752335      6.698223254     10.000000000 2 # 10
    15.498788972      7.064290193     10.000000000 2 # 11
    13.477454340      9.042725098     10.000000000 2 # 12
    14.838271217      9.429363920     10.000000000 2 # 13
    12.794146719     11.393156284     10.000000000 2 # 14
    14.159589722     11.784139155     10.000000000 2 # 15
    12.115552800     13.750582882     10.000000000 2 # 16
    13.480584145     14.142379065     10.000000000 2 # 17
    12.800807284     16.500906442     10.000000000 2 # 18
    16.533876534      6.097188589     10.000000000 2 # 19
    17.847960303      6.473158534     10.000000000 2 # 20
    15.857763369      8.445548445     10.000000000 2 # 21
    17.224545741      8.825611971     10.000000000 2 # 22
    15.182893466     10.806391428     10.000000000 2 # 23
    16.550048546     11.191453206     10.000000000 2 # 24
    14.503222707     13.162380064     10.000000000 2 # 25
    15.868670614     13.551798712     10.000000000 2 # 26
    13.823648797     15.520239474     10.000000000 2 # 27
    15.188271829     15.911261060     10.000000000 2 # 28
    13.143622141     17.878566414     10.000000000 2 # 29
    14.508217457     18.270664704     10.000000000 2 # 30
    13.828929250     20.631978626     10.000000000 2 # 31
    18.621055393      5.688460171     10.000000000 1 # 32
    18.235342865      7.833666160     10.000000000 2 # 33
    17.569104629     10.209334124     10.000000000 2 # 34
    18.935144030     10.598404753     10.000000000 2 # 35
    16.892072985     12.570785363     10.000000000 2 # 36
    18.255975863     12.961068700     10.000000000 2 # 37
    16.211221678     14.929750970     10.000000000 2 # 38
    17.576086213     15.320778169     10.000000000 2 # 39
    15.530861854     17.289236283     10.000000000 2 # 40
    16.895692311     17.680225023     10.000000000 2 # 41
    14.850897376     19.649161638     10.000000000 2 # 42
    16.214878960     20.039283383     10.000000000 2 # 43
    14.171861720     22.011663789     10.000000000 2 # 44
    15.537867785     22.400860136     10.000000000 2 # 45
    14.871987078     24.776398852     10.000000000 2 # 46
    12.785040398     25.167097754     10.000000000 1 # 47
    19.277871929     11.978142850     10.000000000 2 # 48
    18.598765645     14.339411710     10.000000000 2 # 49
    19.963376930     14.731399425     10.000000000 2 # 50
    17.918617156     16.698886276     10.000000000 2 # 51
    19.283261806     17.089920406     10.000000000 2 # 52
    17.238271960     19.058149511     10.000000000 2 # 53
    18.603635135     19.447727335     10.000000000 2 # 54
    16.556829456     21.418734615     10.000000000 2 # 55
    17.924018177     21.803920356     10.000000000 2 # 56
    15.882795595     23.784591116     10.000000000 2 # 57
    17.249539492     24.164631534     10.000000000 2 # 58
    20.306108853     16.109097633     10.000000000 2 # 59
    19.626214553     18.467734483     10.000000000 2 # 60
    20.991291214     18.859283971     10.000000000 2 # 61
    18.947290726     20.826014829     10.000000000 2 # 62
    20.312825085     21.216752485     10.000000000 2 # 63
    18.268943160     23.180870618     10.000000000 2 # 64
    19.629807891     23.567412833     10.000000000 2 # 65
    15.147584126     25.827240407     10.000000000 1 # 66
    21.334834227     20.237210067     10.000000000 2 # 67
    20.657854360     22.596011825     10.000000000 2 # 68
    22.021175295     22.993716375     10.000000000 2 # 69
    17.520162800     25.229227970     10.000000000 1 # 70
    22.357428816     24.385222352     10.000000000 2 # 71
    19.856159797     24.645727841     10.000000000 1 # 72
%endblock AtomicCoordinatesAndAtomicSpecies
