NumberOfAtoms 148
NumberOfSpecies 2
LatticeConstant 1.0 Ang
%block LatticeVectors
     8.870000000      0.000000000      0.000000000 
     0.000000000     50.000000000      0.000000000 
     0.000000000      0.000000000     20.000000000 
%endblock LatticeVectors
AtomicCoordinatesFormat  Ang
%block AtomicCoordinatesAndAtomicSpecies
    11.549819743      6.210397820     10.000000000 1 # 1
    10.749858510      8.224984150     10.000000000 2 # 2
    13.886447884      5.626606514     10.000000000 1 # 3
    11.778427241      7.289182065     10.000000000 2 # 4
    13.132823444      7.657090378     10.000000000 2 # 5
    11.085960358      9.616131391     10.000000000 2 # 6
    12.449327118     10.014011809     10.000000000 2 # 7
    11.772063965     12.372833951     10.000000000 2 # 8
    16.258654191      5.029035353     10.000000000 1 # 9
    14.153885933      6.698324026     10.000000000 2 # 10
    15.498999380      7.064444661     10.000000000 2 # 11
    13.477569577      9.042780817     10.000000000 2 # 12
    14.838334322      9.429513108     10.000000000 2 # 13
    12.794311402     11.393117127     10.000000000 2 # 14
    14.159568444     11.784363771     10.000000000 2 # 15
    12.115661330     13.750598379     10.000000000 2 # 16
    13.480598528     14.142645867     10.000000000 2 # 17
    12.800825257     16.501147895     10.000000000 2 # 18
    16.533995609      6.097360287     10.000000000 2 # 19
    17.848158522      6.473298406     10.000000000 2 # 20
    15.857968815      8.445588071     10.000000000 2 # 21
    17.224554585      8.825805858     10.000000000 2 # 22
    15.183018374     10.806334381     10.000000000 2 # 23
    16.550010856     11.191699303     10.000000000 2 # 24
    14.503311550     13.162340779     10.000000000 2 # 25
    15.868667276     13.552041200     10.000000000 2 # 26
    13.823819118     15.520171056     10.000000000 2 # 27
    15.188341865     15.911603972     10.000000000 2 # 28
    13.143901422     17.878615872     10.000000000 2 # 29
    14.508163922     18.271226894     10.000000000 2 # 30
    13.828446293     20.633173883     10.000000000 2 # 31
    18.621104923      5.688497954     10.000000000 1 # 32
    18.235597672      7.833660073     10.000000000 2 # 33
    17.569161493     10.209322572     10.000000000 2 # 34
    18.935148875     10.598544786     10.000000000 2 # 35
    16.892152959     12.570770584     10.000000000 2 # 36
    18.256058236     12.961301186     10.000000000 2 # 37
    16.211398719     14.929727475     10.000000000 2 # 38
    17.576093273     15.321092718     10.000000000 2 # 39
    15.531082459     17.289246859     10.000000000 2 # 40
    16.895781629     17.680547933     10.000000000 2 # 41
    14.850751083     19.649730813     10.000000000 2 # 42
    16.215302684     20.040012578     10.000000000 2 # 43
    14.170243003     22.016631507     10.000000000 2 # 44
    15.535526125     22.400768695     10.000000000 2 # 45
    14.824219242     24.769294052     10.000000000 2 # 46
    19.278038522     11.978107102     10.000000000 2 # 47
    18.598949548     14.339366567     10.000000000 2 # 48
    19.963373551     14.731704224     10.000000000 2 # 49
    17.918683937     16.698874538     10.000000000 2 # 50
    19.283436881     17.090434824     10.000000000 2 # 51
    17.238611840     19.058257250     10.000000000 2 # 52
    18.603694172     19.448846947     10.000000000 2 # 53
    16.557771089     21.417577463     10.000000000 2 # 54
    17.921575815     21.804457701     10.000000000 2 # 55
    15.871356475     23.777051901     10.000000000 2 # 56
    17.232288635     24.159974080     10.000000000 2 # 57
    15.057978977     26.165458589     10.000000000 2 # 58
    16.412857504     26.532078115     10.000000000 2 # 59
    20.306321359     16.109144923     10.000000000 2 # 60
    19.626766418     18.467631144     10.000000000 2 # 61
    20.991254827     18.859730097     10.000000000 2 # 62
    18.947607569     20.826336877     10.000000000 2 # 63
    20.312836656     21.219284162     10.000000000 2 # 64
    18.259991412     23.176554278     10.000000000 2 # 65
    19.613235011     23.564873796     10.000000000 2 # 66
    17.494022882     25.554254557     10.000000000 2 # 67
    18.852023883     25.936206085     10.000000000 2 # 68
    21.335447878     20.238075362     10.000000000 2 # 69
    20.658087758     22.598584629     10.000000000 2 # 70
    22.015984958     23.003882330     10.000000000 2 # 71
    19.902874126     24.960278756     10.000000000 2 # 72
    21.262149238     25.357687733     10.000000000 2 # 73
    22.328965911     24.386938415     10.000000000 2 # 74
    15.555892421     28.916770331     10.000000000 2 # 75
    16.622772262     27.946069650     10.000000000 2 # 76
    17.982016173     28.343549362     10.000000000 2 # 77
    15.868713666     30.299850328     10.000000000 2 # 78
    17.226522646     30.705122217     10.000000000 2 # 79
    16.548942794     33.065531266     10.000000000 2 # 80
    19.032903258     27.367528490     10.000000000 2 # 81
    20.390893116     27.749437153     10.000000000 2 # 82
    18.271573686     29.739043736     10.000000000 2 # 83
    19.624760994     30.127291823     10.000000000 2 # 84
    17.571617085     32.084449916     10.000000000 2 # 85
    18.936777748     32.477523261     10.000000000 2 # 86
    16.893109142     34.443924474     10.000000000 2 # 87
    18.257578658     34.836146807     10.000000000 2 # 88
    17.578160762     37.194514457     10.000000000 2 # 89
    21.472050370     26.771840073     10.000000000 2 # 90
    22.826908372     27.138238607     10.000000000 2 # 91
    20.652615441     29.143848371     10.000000000 2 # 92
    22.013548314     29.526777216     10.000000000 2 # 93
    19.962906086     31.499424901     10.000000000 2 # 94
    21.326728104     31.886202587     10.000000000 2 # 95
    19.280632255     33.854988589     10.000000000 2 # 96
    20.645767415     34.245440559     10.000000000 2 # 97
    18.601077974     36.213309722     10.000000000 2 # 98
    19.965847003     36.604835041     10.000000000 2 # 99
    17.921137752     38.572032038     10.000000000 2 # 100
    19.285577577     38.964344224     10.000000000 2 # 101
    18.606328435     41.325649998     10.000000000 2 # 102
    23.060596784     28.534574182     10.000000000 2 # 103
    22.349071001     30.903075640     10.000000000 2 # 104
    23.714341115     31.287132729     10.000000000 2 # 105
    21.669084316     33.263770994     10.000000000 2 # 106
    23.033648935     33.654114943     10.000000000 2 # 107
    20.988669822     35.623077149     10.000000000 2 # 108
    22.353321452     36.014571560     10.000000000 2 # 109
    20.308419269     37.982587770     10.000000000 2 # 110
    21.673089398     38.373962374     10.000000000 2 # 111
    19.628319268     40.342492069     10.000000000 2 # 112
    20.992231759     40.732859479     10.000000000 2 # 113
    18.949335852     42.705272280     10.000000000 2 # 114
    20.315431117     43.094503988     10.000000000 2 # 115
    19.649315749     45.470074228     10.000000000 2 # 116
    19.263680988     47.614863064     10.000000000 1 # 117
    24.055992166     32.670600282     10.000000000 2 # 118
    23.376190037     35.032590480     10.000000000 2 # 119
    24.740479859     35.425025904     10.000000000 2 # 120
    22.696145723     37.392255069     10.000000000 2 # 121
    24.060669581     37.783673103     10.000000000 2 # 122
    22.015708368     39.751660193     10.000000000 2 # 123
    23.381023003     40.141470318     10.000000000 2 # 124
    21.334405067     42.112064445     10.000000000 2 # 125
    22.701452372     42.497577314     10.000000000 2 # 126
    20.660100539     44.478306649     10.000000000 2 # 127
    22.026830706     44.858395344     10.000000000 2 # 128
    20.036973429     46.830395500     10.000000000 2 # 129
    21.351032322     47.206622106     10.000000000 2 # 130
    25.083623216     36.802531754     10.000000000 2 # 131
    24.403766562     39.161184390     10.000000000 2 # 132
    25.768791554     39.552970600     10.000000000 2 # 133
    23.724733369     41.519531209     10.000000000 2 # 134
    25.090134786     41.910407541     10.000000000 2 # 135
    23.046316090     43.874568757     10.000000000 2 # 136
    24.407223197     44.261100855     10.000000000 2 # 137
    22.386265470     46.239656871     10.000000000 2 # 138
    23.731232152     46.605373970     10.000000000 2 # 139
    21.626116773     48.275024818     10.000000000 1 # 140
    26.112324328     40.930793154     10.000000000 2 # 141
    25.435254701     43.289561263     10.000000000 2 # 142
    26.798567306     43.687543457     10.000000000 2 # 143
    24.752293088     45.646835453     10.000000000 2 # 144
    26.106684265     46.014579346     10.000000000 2 # 145
    23.998750480     47.676923871     10.000000000 1 # 146
    27.134798532     45.079058745     10.000000000 2 # 147
    26.334823007     47.093305826     10.000000000 1 # 148
%endblock AtomicCoordinatesAndAtomicSpecies
