NumberOfAtoms 58
NumberOfSpecies 2
LatticeConstant 1.0 Ang
%block LatticeVectors
     8.970000000      0.000000000      0.000000000 
     0.000000000     50.000000000      0.000000000 
     0.000000000      0.000000000     20.000000000 
%endblock LatticeVectors
AtomicCoordinatesFormat  Ang
%block AtomicCoordinatesAndAtomicSpecies
    11.578851928      6.166811562     10.000000000 1 # 1
    10.780017173      8.181026182     10.000000000 2 # 2
    13.915863184      5.583195183     10.000000000 1 # 3
    11.807561884      7.245527994     10.000000000 2 # 4
    13.162270723      7.613373470     10.000000000 2 # 5
    11.116693692      9.573292632     10.000000000 2 # 6
    12.479907200      9.971034824     10.000000000 2 # 7
    11.803944489     12.330502750     10.000000000 2 # 8
    16.287878315      4.985399638     10.000000000 1 # 9
    14.183130357      6.654866728     10.000000000 2 # 10
    15.527869762      7.020917809     10.000000000 2 # 11
    13.507446967      8.999632282     10.000000000 2 # 12
    14.868771871      9.385828168     10.000000000 2 # 13
    12.825057651     11.351221227     10.000000000 2 # 14
    14.191260545     11.741167917     10.000000000 2 # 15
    12.147757203     13.710130952     10.000000000 2 # 16
    13.512472175     14.099959965     10.000000000 2 # 17
    12.837022104     16.461845510     10.000000000 2 # 18
    16.563025132      6.053725724     10.000000000 2 # 19
    17.876947556      6.429463247     10.000000000 2 # 20
    15.887552765      8.402413598     10.000000000 2 # 21
    17.255171633      8.781667011     10.000000000 2 # 22
    15.213835733     10.763604608     10.000000000 2 # 23
    16.581617036     11.147535411     10.000000000 2 # 24
    14.535160812     13.120361136     10.000000000 2 # 25
    15.901538053     13.507431287     10.000000000 2 # 26
    13.855266287     15.480172348     10.000000000 2 # 27
    15.222952183     15.864337643     10.000000000 2 # 28
    13.182386826     17.846170677     10.000000000 2 # 29
    14.549982695     18.225622702     10.000000000 2 # 30
    13.874319603     20.574452670     10.000000000 2 # 31
    11.787153290     20.983012910     10.000000000 1 # 32
    18.650195629      5.644904594     10.000000000 1 # 33
    18.264976395      7.790295290     10.000000000 2 # 34
    17.600186531     10.165970400     10.000000000 2 # 35
    18.966479515     10.554907570     10.000000000 2 # 36
    16.924211967     12.527758873     10.000000000 2 # 37
    18.288931025     12.917534507     10.000000000 2 # 38
    16.245506796     14.886641466     10.000000000 2 # 39
    17.611828233     15.276429765     10.000000000 2 # 40
    15.568501058     17.241994477     10.000000000 2 # 41
    16.929862809     17.627950417     10.000000000 2 # 42
    14.909527408     19.607240936     10.000000000 2 # 43
    16.254397038     19.972805130     10.000000000 2 # 44
    19.309631925     11.935471554     10.000000000 2 # 45
    18.632877371     14.297097524     10.000000000 2 # 46
    19.997217480     14.692285599     10.000000000 2 # 47
    17.957283239     16.656594376     10.000000000 2 # 48
    19.320593334     17.054437521     10.000000000 2 # 49
    17.275157945     19.014107131     10.000000000 2 # 50
    18.629794059     19.382110945     10.000000000 2 # 51
    14.149279472     21.642879570     10.000000000 1 # 52
    20.340759670     16.072793565     10.000000000 2 # 53
    19.657459479     18.446709450     10.000000000 2 # 54
    21.042582921     18.837613640     10.000000000 2 # 55
    16.521926165     21.044375455     10.000000000 1 # 56
    21.430440993     20.198501510     10.000000000 2 # 57
    18.857956503     20.460927919     10.000000000 1 # 58
%endblock AtomicCoordinatesAndAtomicSpecies
