NumberOfAtoms 64
NumberOfSpecies 2
LatticeConstant 1.0 Ang
%block LatticeVectors
     8.870000000      0.000000000      0.000000000 
     0.000000000     50.000000000      0.000000000 
     0.000000000      0.000000000     20.000000000 
%endblock LatticeVectors
AtomicCoordinatesFormat  Ang
%block AtomicCoordinatesAndAtomicSpecies
    11.692925303      6.049171876     10.000000000 1 # 1
    10.912909700      8.067930114     10.000000000 2 # 2
    14.062031869      5.517893330     10.000000000 1 # 3
    11.923195220      7.127964592     10.000000000 2 # 4
    13.274004342      7.533043631     10.000000000 2 # 5
    11.215449458      9.427051022     10.000000000 2 # 6
    12.541180287      9.882836905     10.000000000 2 # 7
    11.872005134     12.271864136     10.000000000 2 # 8
    16.424163899      4.956729112     10.000000000 1 # 9
    14.310507814      6.594062177     10.000000000 2 # 10
    15.653749579      6.983564043     10.000000000 2 # 11
    13.589630146      8.928475007     10.000000000 2 # 12
    14.945897067      9.345883049     10.000000000 2 # 13
    12.870779263     11.285333391     10.000000000 2 # 14
    14.226725275     11.699744575     10.000000000 2 # 15
    12.180881465     13.608615734     10.000000000 2 # 16
    13.513765321     14.055930927     10.000000000 2 # 17
    12.834829542     16.440385199     10.000000000 2 # 18
    16.690193714      6.027242065     10.000000000 2 # 19
    18.010307515      6.429106312     10.000000000 2 # 20
    15.981891709      8.376100117     10.000000000 2 # 21
    17.342595456      8.774192462     10.000000000 2 # 22
    15.265666291     10.730839558     10.000000000 2 # 23
    16.624218913     11.146156610     10.000000000 2 # 24
    14.548838969     13.090056468     10.000000000 2 # 25
    15.907637648     13.511023644     10.000000000 2 # 26
    13.836532402     15.453801120     10.000000000 2 # 27
    15.190315515     15.867781309     10.000000000 2 # 28
    13.143296052     17.777198863     10.000000000 2 # 29
    14.473514444     18.225795886     10.000000000 2 # 30
    13.800409624     20.621714849     10.000000000 2 # 31
    13.318442783     22.727591587     10.000000000 1 # 32
    18.816141810      5.677212571     10.000000000 1 # 33
    18.334271932      7.783284705     10.000000000 2 # 34
    17.661214849     10.179206653     10.000000000 2 # 35
    18.991396045     10.627989096     10.000000000 2 # 36
    16.944286914     12.536930292     10.000000000 2 # 37
    18.298028754     12.951233144     10.000000000 2 # 38
    16.226862300     14.893515311     10.000000000 2 # 39
    17.585609112     15.314735250     10.000000000 2 # 40
    15.510410873     17.258664715     10.000000000 2 # 41
    16.868893329     17.674128425     10.000000000 2 # 42
    14.792061613     19.630736712     10.000000000 2 # 43
    16.152735562     20.028732361     10.000000000 2 # 44
    14.124416081     21.975869207     10.000000000 2 # 45
    15.444561250     22.377654349     10.000000000 2 # 46
    19.299845672     11.964829731     10.000000000 2 # 47
    18.620806896     14.349106279     10.000000000 2 # 48
    19.953659192     14.796619175     10.000000000 2 # 49
    17.907702474     16.705138102     10.000000000 2 # 50
    19.263673516     17.119735690     10.000000000 2 # 51
    17.188704879     19.059039656     10.000000000 2 # 52
    18.544958767     19.476351506     10.000000000 2 # 53
    16.480846662     21.421223376     10.000000000 2 # 54
    17.824098546     21.810725193     10.000000000 2 # 55
    15.710771422     23.448106105     10.000000000 1 # 56
    20.262535285     16.133342299     10.000000000 2 # 57
    19.593375251     18.522085670     10.000000000 2 # 58
    20.919118089     18.977934241     10.000000000 2 # 59
    18.860589305     20.871732480     10.000000000 2 # 60
    20.211308460     21.276969960     10.000000000 2 # 61
    18.072601396     22.886906339     10.000000000 1 # 62
    21.221639933     20.337051284     10.000000000 2 # 63
    20.441376380     22.355768095     10.000000000 1 # 64
%endblock AtomicCoordinatesAndAtomicSpecies
