NumberOfAtoms 78
NumberOfSpecies 2
LatticeConstant 1.0 Ang
%block LatticeVectors
     8.870000000      0.000000000      0.000000000 
     0.000000000     50.000000000      0.000000000 
     0.000000000      0.000000000     20.000000000 
%endblock LatticeVectors
AtomicCoordinatesFormat  Ang
%block AtomicCoordinatesAndAtomicSpecies
    11.701595026      6.070311414     10.000000000 1 # 1
    10.919785146      8.089158982     10.000000000 2 # 2
    14.070999487      5.539468681     10.000000000 1 # 3
    11.931439766      7.149187895     10.000000000 2 # 4
    13.281501075      7.554718162     10.000000000 2 # 5
    11.221216886      9.447463717     10.000000000 2 # 6
    12.548450539      9.903666236     10.000000000 2 # 7
    11.876532004     12.292143257     10.000000000 2 # 8
    16.433390870      4.979450526     10.000000000 1 # 9
    14.319008027      6.615841538     10.000000000 2 # 10
    15.662814355      7.005704984     10.000000000 2 # 11
    13.596480050      8.949932002     10.000000000 2 # 12
    14.953478206      9.367849151     10.000000000 2 # 13
    12.877324894     11.304975584     10.000000000 2 # 14
    14.232147393     11.719949762     10.000000000 2 # 15
    12.184513276     13.627559664     10.000000000 2 # 16
    13.519573991     14.075492458     10.000000000 2 # 17
    12.838120967     16.459207555     10.000000000 2 # 18
    16.699065826      6.050050987     10.000000000 2 # 19
    18.020149241      6.452235243     10.000000000 2 # 20
    15.990513117      8.397946961     10.000000000 2 # 21
    17.350315545      8.796637687     10.000000000 2 # 22
    15.272388917     10.751018591     10.000000000 2 # 23
    16.631898801     11.166668090     10.000000000 2 # 24
    14.553666855     13.109909899     10.000000000 2 # 25
    15.913414657     13.531152663     10.000000000 2 # 26
    13.842540436     15.471511545     10.000000000 2 # 27
    15.195048080     15.886059140     10.000000000 2 # 28
    13.145679406     17.792825767     10.000000000 2 # 29
    14.481194380     18.240932263     10.000000000 2 # 30
    13.797981123     20.624578903     10.000000000 2 # 31
    18.825961250      5.700351412     10.000000000 1 # 32
    18.343848672      7.805415867     10.000000000 2 # 33
    17.668323142     10.200474854     10.000000000 2 # 34
    19.000362641     10.649736754     10.000000000 2 # 35
    16.951410055     12.557094052     10.000000000 2 # 36
    18.303914835     12.972322639     10.000000000 2 # 37
    16.231636854     14.910959053     10.000000000 2 # 38
    17.590549599     15.333684917     10.000000000 2 # 39
    15.515548304     17.275922521     10.000000000 2 # 40
    16.874451316     17.698650132     10.000000000 2 # 41
    14.802203140     19.637395134     10.000000000 2 # 42
    16.154712894     20.052663207     10.000000000 2 # 43
    14.105829472     21.960025549     10.000000000 2 # 44
    15.437860476     22.409318695     10.000000000 2 # 45
    14.762286301     24.804425559     10.000000000 2 # 46
    14.280146158     26.909383603     10.000000000 1 # 47
    19.308154113     11.985168372     10.000000000 2 # 48
    18.624896527     14.368713679     10.000000000 2 # 49
    19.960403700     14.816779994     10.000000000 2 # 50
    17.911062839     16.723552294     10.000000000 2 # 51
    19.263573730     17.138142567     10.000000000 2 # 52
    17.192614631     19.078495742     10.000000000 2 # 53
    18.552344394     19.499795058     10.000000000 2 # 54
    16.474283092     21.443084464     10.000000000 2 # 55
    17.833750129     21.858793410     10.000000000 2 # 56
    15.755812163     23.813194463     10.000000000 2 # 57
    17.115621069     24.211838720     10.000000000 2 # 58
    15.085978213     26.157581617     10.000000000 2 # 59
    16.407039392     26.559756718     10.000000000 2 # 60
    20.267986380     16.150387086     10.000000000 2 # 61
    19.586441918     18.534241684     10.000000000 2 # 62
    20.921533809     18.982089315     10.000000000 2 # 63
    18.873886240     20.889757183     10.000000000 2 # 64
    20.228758067     21.304670038     10.000000000 2 # 65
    18.152671218     23.241984088     10.000000000 2 # 66
    19.509680892     23.659876810     10.000000000 2 # 67
    17.443307819     25.604108126     10.000000000 2 # 68
    18.787135212     25.993953422     10.000000000 2 # 69
    16.672701514     27.630337282     10.000000000 1 # 70
    21.229556668     20.317473153     10.000000000 2 # 71
    20.557613037     22.706008754     10.000000000 2 # 72
    21.884843164     23.162258650     10.000000000 2 # 73
    19.824666044     25.055127682     10.000000000 2 # 74
    21.174733994     25.460631097     10.000000000 2 # 75
    19.035193190     27.070302403     10.000000000 1 # 76
    22.186301113     24.520588006     10.000000000 2 # 77
    21.404616320     26.539501876     10.000000000 1 # 78
%endblock AtomicCoordinatesAndAtomicSpecies
