NumberOfAtoms 72
NumberOfSpecies 2
LatticeConstant 1.0 Ang
%block LatticeVectors
     8.970000000      0.000000000      0.000000000 
     0.000000000     50.000000000      0.000000000 
     0.000000000      0.000000000     20.000000000 
%endblock LatticeVectors
AtomicCoordinatesFormat  Ang
%block AtomicCoordinatesAndAtomicSpecies
    11.548719042      6.212112580     10.000000000 1 # 1
    10.748972657      8.226474202     10.000000000 2 # 2
    13.885661546      5.628313376     10.000000000 1 # 3
    11.777172875      7.290865637     10.000000000 2 # 4
    13.131790143      7.658656027     10.000000000 2 # 5
    11.085071566      9.618104031     10.000000000 2 # 6
    12.448394080     10.015747022     10.000000000 2 # 7
    11.771426823     12.374463823     10.000000000 2 # 8
    16.257946978      5.030874997     10.000000000 1 # 9
    14.152709321      6.700061056     10.000000000 2 # 10
    15.497752023      7.066192675     10.000000000 2 # 11
    13.476483129      9.044536400     10.000000000 2 # 12
    14.837299882      9.431163869     10.000000000 2 # 13
    12.793434594     11.395074699     10.000000000 2 # 14
    14.158953741     11.785954250     10.000000000 2 # 15
    12.114825405     13.752767010     10.000000000 2 # 16
    13.479989362     14.144378682     10.000000000 2 # 17
    12.800160801     16.503455709     10.000000000 2 # 18
    16.532860377      6.099200425     10.000000000 2 # 19
    17.846902710      6.475236558     10.000000000 2 # 20
    15.856755014      8.447472990     10.000000000 2 # 21
    17.223636288      8.827557268     10.000000000 2 # 22
    15.182055106     10.808267419     10.000000000 2 # 23
    16.549364863     11.193160244     10.000000000 2 # 24
    14.502416646     13.164476570     10.000000000 2 # 25
    15.868075102     13.553513223     10.000000000 2 # 26
    13.822814197     15.522681509     10.000000000 2 # 27
    15.187611323     15.913010216     10.000000000 2 # 28
    13.142895967     17.881844967     10.000000000 2 # 29
    14.507000265     18.271752417     10.000000000 2 # 30
    13.830090198     20.633253638     10.000000000 2 # 31
    18.620188962      5.690702657     10.000000000 1 # 32
    18.234254246      7.835722876     10.000000000 2 # 33
    17.568256959     10.211353443     10.000000000 2 # 34
    18.934487635     10.600207590     10.000000000 2 # 35
    16.891356874     12.572666652     10.000000000 2 # 36
    18.255382962     12.962695639     10.000000000 2 # 37
    16.210724196     14.931492221     10.000000000 2 # 38
    17.575543238     15.321832276     10.000000000 2 # 39
    15.530308665     17.290852605     10.000000000 2 # 40
    16.895949193     17.679896331     10.000000000 2 # 41
    14.848950498     19.651378062     10.000000000 2 # 42
    16.216354802     20.036154521     10.000000000 2 # 43
    14.175082103     22.017003099     10.000000000 2 # 44
    15.541988398     22.396878320     10.000000000 2 # 45
    14.866121512     24.745182159     10.000000000 2 # 46
    12.779058343     25.153995400     10.000000000 1 # 47
    19.277344032     11.979977242     10.000000000 2 # 48
    18.598216196     14.340951651     10.000000000 2 # 49
    19.962846280     14.733179577     10.000000000 2 # 50
    17.918309269     16.700169289     10.000000000 2 # 51
    19.283526095     17.091721459     10.000000000 2 # 52
    17.239499447     19.058398542     10.000000000 2 # 53
    18.604940931     19.449367092     10.000000000 2 # 54
    16.561334898     21.413244878     10.000000000 2 # 55
    17.922152704     21.800141099     10.000000000 2 # 56
    15.901157041     23.778174447     10.000000000 2 # 57
    17.246247417     24.144456936     10.000000000 2 # 58
    20.305539912     16.111240598     10.000000000 2 # 59
    19.626850960     18.469972899     10.000000000 2 # 60
    20.990852570     18.864531361     10.000000000 2 # 61
    18.950058264     20.828697259     10.000000000 2 # 62
    20.313445370     21.226177403     10.000000000 2 # 63
    18.267220540     23.185917909     10.000000000 2 # 64
    19.621896004     23.553601940     10.000000000 2 # 65
    15.141339685     25.813416020     10.000000000 1 # 66
    21.333881259     20.244161530     10.000000000 2 # 67
    20.649858162     22.617757662     10.000000000 2 # 68
    22.034509065     23.008791194     10.000000000 2 # 69
    17.513139666     25.216257183     10.000000000 1 # 70
    22.422089756     24.369270024     10.000000000 2 # 71
    19.850251082     24.632402067     10.000000000 1 # 72
%endblock AtomicCoordinatesAndAtomicSpecies
