NumberOfAtoms 36
NumberOfSpecies 2
LatticeConstant 1.0 Ang
%block LatticeVectors
     8.970000000      0.000000000      0.000000000 
     0.000000000     50.000000000      0.000000000 
     0.000000000      0.000000000     20.000000000 
%endblock LatticeVectors
AtomicCoordinatesFormat  Ang
%block AtomicCoordinatesAndAtomicSpecies
    12.024112758      5.505014870     10.000000000 1 # 1
    11.206128378      7.546023477     10.000000000 2 # 2
    14.319463166      4.899735514     10.000000000 1 # 3
    12.230956925      6.587435534     10.000000000 2 # 4
    13.590454019      6.962476414     10.000000000 2 # 5
    11.541321929      8.957647755     10.000000000 2 # 6
    12.906544985      9.367298244     10.000000000 2 # 7
    12.242789613     11.783022909     10.000000000 2 # 8
    11.847340599     13.951214538     10.000000000 1 # 9
    16.696611527      4.282993449     10.000000000 1 # 10
    14.598867006      5.969203019     10.000000000 2 # 11
    15.951849876      6.341994545     10.000000000 2 # 12
    13.929234231      8.371434287     10.000000000 2 # 13
    15.298372044      8.757419625     10.000000000 2 # 14
    13.248510924     10.779458469     10.000000000 2 # 15
    14.625063547     11.170562643     10.000000000 2 # 16
    12.620810279     13.170536431     10.000000000 2 # 17
    13.943105245     13.566820312     10.000000000 2 # 18
    16.988539752      5.352881141     10.000000000 2 # 19
    18.311038366      5.749079643     10.000000000 2 # 20
    16.307258627      7.749757261     10.000000000 2 # 21
    17.684168090      8.140598254     10.000000000 2 # 22
    15.634205036     10.162902503     10.000000000 2 # 23
    17.003207493     10.548892406     10.000000000 2 # 24
    14.980487259     12.578207784     10.000000000 2 # 25
    16.333141260     12.950926855     10.000000000 2 # 26
    14.235262458     14.636639014     10.000000000 1 # 27
    19.084643369      4.968638899     10.000000000 1 # 28
    18.689248274      7.136695352     10.000000000 2 # 29
    18.025846192      9.552854830     10.000000000 2 # 30
    19.391061244      9.962063633     10.000000000 2 # 31
    17.341722201     11.957800397     10.000000000 2 # 32
    18.701197932     12.332624975     10.000000000 2 # 33
    16.612462663     14.020331770     10.000000000 1 # 34
    19.725981446     11.373774592     10.000000000 2 # 35
    18.908017449     13.415092004     10.000000000 1 # 36
%endblock AtomicCoordinatesAndAtomicSpecies
