NumberOfAtoms 44
NumberOfSpecies 2
LatticeConstant 1.0 Ang
%block LatticeVectors
     8.970000000      0.000000000      0.000000000 
     0.000000000     50.000000000      0.000000000 
     0.000000000      0.000000000     20.000000000 
%endblock LatticeVectors
AtomicCoordinatesFormat  Ang
%block AtomicCoordinatesAndAtomicSpecies
    11.611527665      6.152628534     10.000000000 1 # 1
    10.815241957      8.166147340     10.000000000 2 # 2
    13.948573489      5.567490352     10.000000000 1 # 3
    11.840397621      7.231344268     10.000000000 2 # 4
    13.196924351      7.597910946     10.000000000 2 # 5
    11.152998967      9.559845335     10.000000000 2 # 6
    12.515174837      9.955760371     10.000000000 2 # 7
    11.845399645     12.317073258     10.000000000 2 # 8
    16.321722505      4.968856494     10.000000000 1 # 9
    14.216361313      6.639100454     10.000000000 2 # 10
    15.561255068      7.004364409     10.000000000 2 # 11
    13.543151541      8.984172330     10.000000000 2 # 12
    14.905078872      9.368382529     10.000000000 2 # 13
    12.860656392     11.337883815     10.000000000 2 # 14
    14.231712215     11.720884855     10.000000000 2 # 15
    12.191821031     13.703649932     10.000000000 2 # 16
    13.561704059     14.082639967     10.000000000 2 # 17
    12.886438906     16.432007789     10.000000000 2 # 18
    10.799755900     16.839570525     10.000000000 1 # 19
    16.596871122      6.037110741     10.000000000 2 # 20
    17.909930374      6.413275939     10.000000000 2 # 21
    15.921735833      8.386366150     10.000000000 2 # 22
    17.291695804      8.765060853     10.000000000 2 # 23
    15.251461591     10.748247297     10.000000000 2 # 24
    16.622583876     11.130815968     10.000000000 2 # 25
    14.578402446     13.100647324     10.000000000 2 # 26
    15.940476258     13.484482032     10.000000000 2 # 27
    13.922116451     15.464704718     10.000000000 2 # 28
    15.267094528     15.829531104     10.000000000 2 # 29
    18.683567059      5.629096577     10.000000000 1 # 30
    18.297924188      7.775637666     10.000000000 2 # 31
    17.637976972     10.151575747     10.000000000 2 # 32
    19.004331558     10.543162759     10.000000000 2 # 33
    16.968205966     12.512846265     10.000000000 2 # 34
    18.330355190     12.908904970     10.000000000 2 # 35
    16.286619901     14.870726699     10.000000000 2 # 36
    17.643140184     15.237413101     10.000000000 2 # 37
    13.160895047     17.500530513     10.000000000 1 # 38
    19.349057916     11.925593777     10.000000000 2 # 39
    18.668168331     14.302592802     10.000000000 2 # 40
    20.055540194     14.693127530     10.000000000 2 # 41
    15.535385039     16.900926164     10.000000000 1 # 42
    20.443428735     16.055453427     10.000000000 2 # 43
    17.872208100     16.316070912     10.000000000 1 # 44
%endblock AtomicCoordinatesAndAtomicSpecies
