NumberOfAtoms 64
NumberOfSpecies 2
LatticeConstant 1.0 Ang
%block LatticeVectors
     8.970000000      0.000000000      0.000000000 
     0.000000000     50.000000000      0.000000000 
     0.000000000      0.000000000     20.000000000 
%endblock LatticeVectors
AtomicCoordinatesFormat  Ang
%block AtomicCoordinatesAndAtomicSpecies
    11.572617900      6.168895911     10.000000000 1 # 1
    10.705002964      8.177241584     10.000000000 2 # 2
    13.911760418      5.586693530     10.000000000 1 # 3
    11.786881808      7.247137173     10.000000000 2 # 4
    13.160873242      7.618133050     10.000000000 2 # 5
    11.045483019      9.597839926     10.000000000 2 # 6
    12.462312714      9.976402945     10.000000000 2 # 7
    11.724613430     12.326383387     10.000000000 2 # 8
    16.283526468      4.989174850     10.000000000 1 # 9
    14.176285285      6.658246898     10.000000000 2 # 10
    15.526637905      7.023621618     10.000000000 2 # 11
    13.501264552      9.000204748     10.000000000 2 # 12
    14.864511684      9.389757375     10.000000000 2 # 13
    12.808976409     11.358360199     10.000000000 2 # 14
    14.186594868     11.746585642     10.000000000 2 # 15
    12.074744194     13.729848152     10.000000000 2 # 16
    13.497052080     14.106206454     10.000000000 2 # 17
    12.755647983     16.458359381     10.000000000 2 # 18
    16.553850291      6.057440276     10.000000000 2 # 19
    17.882957215      6.441210713     10.000000000 2 # 20
    15.882389162      8.404661631     10.000000000 2 # 21
    17.261268269      8.781319271     10.000000000 2 # 22
    15.209056388     10.766449693     10.000000000 2 # 23
    16.577930798     11.153677660     10.000000000 2 # 24
    14.528061089     13.121713069     10.000000000 2 # 25
    15.896600570     13.513553390     10.000000000 2 # 26
    13.840069394     15.486635879     10.000000000 2 # 27
    15.216401016     15.873868431     10.000000000 2 # 28
    13.104989330     17.863417480     10.000000000 2 # 29
    14.528247783     18.237111788     10.000000000 2 # 30
    13.801300146     20.599169504     10.000000000 2 # 31
    13.486253006     22.754609715     10.000000000 1 # 32
    18.648220833      5.648967087     10.000000000 1 # 33
    18.333334976      7.804371178     10.000000000 2 # 34
    17.606554219     10.166502945     10.000000000 2 # 35
    19.029857223     10.540243386     10.000000000 2 # 36
    16.918301845     12.529779621     10.000000000 2 # 37
    18.294574376     12.916816466     10.000000000 2 # 38
    16.238008977     14.890154385     10.000000000 2 # 39
    17.606522256     15.281857926     10.000000000 2 # 40
    15.556919574     17.249895956     10.000000000 2 # 41
    16.925869345     17.636944702     10.000000000 2 # 42
    14.873714232     19.622265450     10.000000000 2 # 43
    16.252319853     19.999341437     10.000000000 2 # 44
    14.251534789     21.962405056     10.000000000 2 # 45
    15.580672822     22.346443649     10.000000000 2 # 46
    19.379177727     11.945413974     10.000000000 2 # 47
    18.637710213     14.297317192     10.000000000 2 # 48
    20.059793955     14.673797188     10.000000000 2 # 49
    17.948294786     16.656849157     10.000000000 2 # 50
    19.325783841     17.045059555     10.000000000 2 # 51
    17.270180029     19.013964425     10.000000000 2 # 52
    18.633385020     19.403204218     10.000000000 2 # 53
    16.607975032     21.380191980     10.000000000 2 # 54
    17.958450100     21.745309379     10.000000000 2 # 55
    15.850497959     23.414686270     10.000000000 1 # 56
    20.410048725     16.077387358     10.000000000 2 # 57
    19.672408179     18.427001514     10.000000000 2 # 58
    21.089357582     18.805877137     10.000000000 2 # 59
    18.973631352     20.785267810     10.000000000 2 # 60
    20.347764273     21.156295383     10.000000000 2 # 61
    18.223394420     22.816861410     10.000000000 1 # 62
    21.429830148     20.226468279     10.000000000 2 # 63
    20.561297540     22.234625316     10.000000000 1 # 64
%endblock AtomicCoordinatesAndAtomicSpecies
